CPXPARAM_MIP_Tolerances_MIPGap                   0
Tried aggregator 1 time.
MIP Presolve eliminated 325 rows and 16 columns.
MIP Presolve modified 2143 coefficients.
Reduced MIP has 3591 rows, 1976 columns, and 10446 nonzeros.
Reduced MIP has 1667 binaries, 0 generals, 0 SOSs, and 0 indicators.
Presolve time = 0.02 sec. (7.88 ticks)
Found incumbent of value 51.000000 after 0.06 sec. (20.99 ticks)
Probing time = 0.02 sec. (3.80 ticks)
Tried aggregator 1 time.
MIP Presolve modified 2 coefficients.
Reduced MIP has 3591 rows, 1976 columns, and 10446 nonzeros.
Reduced MIP has 1667 binaries, 0 generals, 0 SOSs, and 0 indicators.
Presolve time = 0.00 sec. (5.82 ticks)
Probing time = 0.02 sec. (3.46 ticks)
Clique table members: 2286.
MIP emphasis: balance optimality and feasibility.
MIP search method: dynamic search.
Parallel mode: deterministic, using up to 8 threads.
Root relaxation solution time = 0.05 sec. (27.38 ticks)

        Nodes                                         Cuts/
   Node  Left     Objective  IInf  Best Integer    Best Bound    ItCnt     Gap

*     0+    0                           51.0000       16.0000            68.63%
*     0+    0                           49.0000       16.0000            67.35%
      0     0       16.0000    22       49.0000       16.0000      532   67.35%
      0     0       16.0041    16       49.0000      Cuts: 42      704   67.34%
*     0+    0                           25.0000       16.0041            35.98%
*     0+    0                           21.0000       16.0041            23.79%
      0     0       20.0000    13       21.0000      Cuts: 61      770    4.76%
      0     0        cutoff             21.0000                    770    0.00%
Elapsed time = 0.34 sec. (116.24 ticks, tree = 0.01 MB, solutions = 4)

Clique cuts applied:  24
Implied bound cuts applied:  6
Mixed integer rounding cuts applied:  30

Root node processing (before b&c):
  Real time             =    0.36 sec. (116.41 ticks)
Parallel b&c, 8 threads:
  Real time             =    0.00 sec. (0.00 ticks)
  Sync time (average)   =    0.00 sec.
  Wait time (average)   =    0.00 sec.
                          ------------
Total (root+branch&cut) =    0.36 sec. (116.41 ticks)
